
  32    4
  10   10   10   10

   0   0   0   0   0   3 2 3 5 
   6   0   1   1   1   2 10 4 
   7   1   6   0   5   4 10 9 7 6 
  10   5   0   4   3   3 9 7 6 
   5   5   4   3   0   2 9 6 
   3   0   4   6   5   1 8 
   6   5   0   6   5   1 8 
  10   0   3   3   2   2 13 11 
   3   5   6   0   6   2 13 11 
   4   7   0   1   5   2 13 11 
   5   0   2   3   4   3 16 14 12 
   1   6   6   4   0   4 25 21 19 15 
   6   0   2   5   4   1 14 
   7   2   5   0   5   2 20 18 
   7   0   5   4   4   1 17 
   4   2   6   0   3   3 31 22 21 
   7   0   6   8   4   1 18 
  10   2   4   4   0   4 31 29 24 22 
   7   6   0   5   3   4 31 29 24 22 
   2   4   4   0   3   3 31 30 21 
   5   0   4   6   5   4 29 28 24 23 
   4   4   2   0   5   3 30 28 23 
   6   0   1   3   4   2 27 26 
  10   0   3   5   3   2 27 26 
   7   4   5   0   4   1 26 
  10   0   4   5   5   1 32
   5   0   3   3   6   1 32
   3   7   0   3   3   1 32
   6   1   4   0   3   1 32
   3   3   3   0   4   1 32
   2   3   7   2   0   1 32
   0   0   0   0   0   0 
